c WARNING: for repeatability, setting FPU to use double precision
d VARIABLES            204126       
d CONSTRAINTS          928498       
c ============================[ Problem Statistics ]=============================
c |                                                                             |
c |  Number of variables:        204126                                         |
c |  Number of clauses:          928498                                         |
c |  Parse time:                   0.15 s                                       |
c |                                                                             |
c ============================[ Search Statistics ]==============================
c | Conflicts |          ORIGINAL         |          LEARNT          | Progress |
c |           |    Vars  Clauses Literals |    Limit  Clauses Lit/Cl |          |
c ===============================================================================
c |       100 |  178953   856618  2071882 |   314093      100      6 | 12.332 % |
c |       250 |  178953   856618  2071882 |   345502      250     80 | 12.332 % |
c |       475 |  178953   856618  2071882 |   380052      475     90 | 12.332 % |
c |       812 |  178953   856618  2071882 |   418058      812     96 | 12.332 % |
c |      1318 |  178953   856618  2071882 |   459863     1318     95 | 12.332 % |
c |      2077 |  178953   856618  2071882 |   505850     2077    105 | 12.332 % |
c |      3216 |  178953   856618  2071882 |   556435     3216    117 | 12.332 % |
c |      4924 |  178953   856618  2071882 |   612078     4924    117 | 12.332 % |
c |      7486 |  178953   856618  2071882 |   673286     7486    158 | 12.332 % |
c |     11330 |  178953   856618  2071882 |   740615    11330    160 | 12.332 % |
c |     17096 |  178953   856618  2071882 |   814677    17096    168 | 12.332 % |
c |     25745 |  178953   856618  2071882 |   896144    25745    191 | 12.332 % |
c ===============================================================================
c restarts              : 121
c conflicts             : 32272          (1844 /sec)
c decisions             : 243126         (0.00 % random) (13892 /sec)
c propagations          : 82833516       (4733048 /sec)
c conflict literals     : 5936607        (8.65 % deleted)
d RESTARTS             121
d FAILURES             32272        
d NODES                243126       
d BACKTRACKS           243126       
d PROPAGATIONS         82833516     
d NOGOODSIZE           183.96 
d MEMORY               106.00 
d TIME                 17.5011 

s SATISFIABLE
